1073.91 0
0 47 36 70 60 71 69 21 0
0 8 14 59 53 0
0 34 52 46 67 0
0 75 0
0 7 35 19 54 13 27 0
0 11 66 38 0
0 33 63 23 56 24 0
0 68 6 51 17 12 26 0
0 16 49 18 32 40 0
0 57 15 20 37 5 45 0
0 1 43 41 42 64 73 0
0 9 25 55 50 44 3 0
0 58 10 65 31 39 72 0
0 62 22 61 28 2 0
0 4 29 48 74 30 0
